p tw 57 6841 2 
1 3 
1 4 
1 5 
1 6 
1 7 
1 8 
1 9 
1 10 
1 11 
1 12 
1 19 
1 22 
1 25 
1 30 
1 33 
1 34 
1 35 
1 36 
1 37 
1 41 
1 47 
1 49 
1 57 
2 3 
2 4 
2 5 
2 6 
2 7 
2 8 
2 9 
2 10 
2 13 
2 14 
2 18 
2 21 
2 26 
2 27 
2 31 
2 36 
2 37 
2 38 
2 39 
2 41 
2 44 
2 51 
2 52 
3 4 
3 5 
3 6 
3 7 
3 8 
3 9 
3 10 
3 15 
3 16 
3 20 
3 23 
3 28 
3 29 
3 31 
3 32 
3 33 
3 34 
3 39 
3 44 
3 47 
3 54 
3 55 
4 5 
4 6 
4 7 
4 8 
4 9 
4 12 
4 15 
4 17 
4 18 
4 19 
4 26 
4 29 
4 33 
4 37 
4 42 
4 43 
4 44 
4 45 
4 46 
4 50 
4 56 
5 6 
5 7 
5 8 
5 9 
5 11 
5 14 
5 17 
5 20 
5 21 
5 25 
5 28 
5 31 
5 36 
5 40 
5 45 
5 46 
5 47 
5 48 
5 50 
5 53 
6 7 
6 8 
6 9 
6 13 
6 16 
6 17 
6 22 
6 23 
6 27 
6 30 
6 34 
6 39 
6 40 
6 41 
6 42 
6 43 
6 48 
6 53 
6 56 
7 8 
7 9 
7 11 
7 16 
7 19 
7 22 
7 24 
7 25 
7 26 
7 32 
7 38 
7 42 
7 46 
7 51 
7 52 
7 53 
7 54 
7 55 
8 9 
8 12 
8 13 
8 18 
8 21 
8 24 
8 27 
8 28 
8 32 
8 35 
8 40 
8 45 
8 49 
8 54 
8 55 
8 56 
8 57 
9 14 
9 15 
9 20 
9 23 
9 24 
9 29 
9 30 
9 35 
9 38 
9 43 
9 48 
9 49 
9 50 
9 51 
9 52 
9 57 
10 11 
10 12 
10 13 
10 14 
10 15 
10 16 
10 18 
10 20 
10 22 
10 26 
10 28 
10 30 
10 31 
10 34 
10 37 
10 41 
10 44 
10 47 
10 51 
10 54 
10 57 
11 12 
11 17 
11 19 
11 20 
11 21 
11 22 
11 25 
11 30 
11 31 
11 32 
11 37 
11 40 
11 42 
11 47 
11 50 
11 51 
11 52 
11 53 
11 54 
11 57 
12 18 
12 22 
12 24 
12 26 
12 27 
12 28 
12 30 
12 32 
12 33 
12 37 
12 40 
12 42 
12 43 
12 44 
12 45 
12 47 
12 49 
12 50 
12 57 
13 14 
13 17 
13 18 
13 21 
13 22 
13 23 
13 26 
13 27 
13 31 
13 34 
13 35 
13 41 
13 43 
13 45 
13 51 
13 53 
13 54 
13 55 
13 56 
13 57 
14 18 
14 20 
14 24 
14 26 
14 28 
14 29 
14 30 
14 31 
14 35 
14 36 
14 41 
14 43 
14 45 
14 46 
14 47 
14 48 
14 51 
14 52 
14 53 
15 16 
15 17 
15 18 
15 19 
15 20 
15 23 
15 28 
15 29 
15 34 
15 37 
15 38 
15 44 
15 46 
15 48 
15 49 
15 50 
15 51 
15 54 
15 56 
15 57 
16 20 
16 22 
16 24 
16 25 
16 26 
16 28 
16 30 
16 34 
16 38 
16 39 
16 40 
16 41 
16 42 
16 44 
16 46 
16 48 
16 54 
16 55 
16 56 
17 18 
17 19 
17 20 
17 21 
17 22 
17 23 
17 25 
17 27 
17 29 
17 31 
17 34 
17 37 
17 40 
17 43 
17 46 
17 50 
17 53 
17 56 
18 19 
18 24 
18 26 
18 27 
18 28 
18 29 
18 31 
18 32 
18 37 
18 40 
18 41 
18 46 
18 49 
18 51 
18 56 
19 25 
19 29 
19 32 
19 33 
19 34 
19 35 
19 36 
19 37 
19 41 
19 42 
19 46 
19 49 
19 51 
19 52 
19 53 
19 54 
19 56 
20 21 
20 24 
20 25 
20 28 
20 29 
20 30 
20 31 
20 34 
20 35 
20 40 
20 43 
20 44 
20 50 
20 52 
20 54 
21 25 
21 27 
21 31 
21 35 
21 36 
21 37 
21 38 
21 39 
21 40 
21 44 
21 45 
21 50 
21 52 
21 54 
21 55 
21 56 
21 57 
22 23 
22 24 
22 25 
22 26 
22 27 
22 30 
22 34 
22 37 
22 38 
22 43 
22 46 
22 47 
22 53 
22 55 
22 57 
23 27 
23 29 
23 31 
23 32 
23 33 
23 34 
23 38 
23 39 
23 43 
23 47 
23 48 
23 49 
23 50 
23 51 
23 53 
23 55 
23 57 
24 25 
24 26 
24 27 
24 28 
24 29 
24 30 
24 32 
24 35 
24 38 
24 40 
24 43 
24 46 
24 49 
24 52 
24 55 
25 26 
25 31 
25 33 
25 34 
25 35 
25 36 
25 38 
25 40 
25 41 
25 46 
25 49 
25 50 
25 55 
26 31 
26 33 
26 38 
26 41 
26 42 
26 43 
26 44 
26 45 
26 46 
26 50 
26 51 
26 55 
27 28 
27 32 
27 34 
27 36 
27 37 
27 38 
27 39 
27 40 
27 43 
27 44 
27 49 
27 52 
27 53 
28 32 
28 34 
28 36 
28 40 
28 44 
28 45 
28 46 
28 47 
28 48 
28 49 
28 53 
28 54 
29 30 
29 31 
29 32 
29 33 
29 35 
29 37 
29 39 
29 43 
29 46 
29 47 
29 52 
29 55 
29 56 
30 35 
30 37 
30 39 
30 40 
30 41 
30 42 
30 43 
30 47 
30 48 
30 52 
30 56 
30 57 
31 32 
31 33 
31 39 
31 40 
31 41 
31 47 
31 50 
31 51 
31 55 
32 33 
32 39 
32 40 
32 42 
32 47 
32 49 
32 51 
32 52 
32 53 
32 54 
32 55 
33 34 
33 35 
33 36 
33 39 
33 41 
33 42 
33 43 
33 44 
33 45 
33 47 
33 49 
33 50 
33 55 
34 35 
34 36 
34 41 
34 43 
34 44 
34 49 
34 53 
34 54 
35 36 
35 41 
35 43 
35 45 
35 49 
35 52 
35 54 
35 55 
35 56 
35 57 
36 37 
36 38 
36 39 
36 41 
36 44 
36 45 
36 46 
36 47 
36 48 
36 49 
36 52 
36 53 
37 38 
37 39 
37 44 
37 46 
37 47 
37 52 
37 56 
37 57 
38 39 
38 44 
38 46 
38 48 
38 49 
38 50 
38 51 
38 52 
38 55 
38 57 
39 40 
39 41 
39 42 
39 44 
39 47 
39 48 
39 52 
39 55 
39 56 
40 41 
40 42 
40 48 
40 49 
40 50 
40 56 
41 42 
41 48 
41 49 
41 51 
41 56 
42 43 
42 44 
42 45 
42 48 
42 50 
42 51 
42 52 
42 53 
42 54 
42 56 
43 44 
43 45 
43 50 
43 52 
43 53 
44 45 
44 50 
44 52 
44 54 
45 46 
45 47 
45 48 
45 50 
45 53 
45 54 
45 55 
45 56 
45 57 
46 47 
46 48 
46 53 
46 55 
46 56 
47 48 
47 53 
47 55 
47 57 
48 49 
48 50 
48 51 
48 53 
48 56 
48 57 
49 50 
49 51 
49 57 
50 51 
50 57 
51 52 
51 53 
51 54 
51 57 
52 53 
52 54 
53 54 
54 55 
54 56 
54 57 
55 56 
55 57 
56 57 
